c WARNING: for repeatability, setting FPU to use double precision
d VARIABLES            74014        
d CONSTRAINTS          262188       
c ============================[ Problem Statistics ]=============================
c |                                                                             |
c |  Number of variables:         74014                                         |
c |  Number of clauses:          262188                                         |
c |  Parse time:                   0.04 s                                       |
c |                                                                             |
c ============================[ Search Statistics ]==============================
c | Conflicts |          ORIGINAL         |          LEARNT          | Progress |
c |           |    Vars  Clauses Literals |    Limit  Clauses Lit/Cl |          |
c ===============================================================================
c |       100 |   53932   210166   528727 |    77060      100     76 | 27.133 % |
c |       250 |   53932   210166   528727 |    84766      250     46 | 27.133 % |
c |       475 |   53932   210166   528727 |    93243      475     30 | 27.133 % |
c |       812 |   53932   210166   528727 |   102568      812     21 | 27.133 % |
c |      1318 |   53932   210166   528727 |   112824     1318     20 | 27.133 % |
c |      2077 |   53932   210166   528727 |   124107     2077     16 | 27.133 % |
c |      3216 |   53932   210166   528727 |   136518     3216     20 | 27.133 % |
c |      4924 |   53932   210166   528727 |   150169     4924     19 | 27.133 % |
c |      7486 |   53932   210166   528727 |   165186     7486     26 | 27.133 % |
c |     11330 |   53929   210148   528684 |   181705    11323     31 | 27.137 % |
c |     17096 |   53929   210148   528684 |   199876    17089     41 | 27.137 % |
c |     25745 |   53928   210138   528661 |   219863    25733     56 | 27.138 % |
c |     38719 |   53918   210094   528559 |   241850    38647     66 | 27.152 % |
c |     58180 |   53853   209864   528024 |   266035    57702     82 | 27.239 % |
c |     87372 |   53756   209117   526255 |   292638    82951     95 | 27.370 % |
c ===============================================================================
c restarts              : 286
c conflicts             : 110408         (3090 /sec)
c decisions             : 745536         (0.00 % random) (20863 /sec)
c propagations          : 183484351      (5134694 /sec)
c conflict literals     : 12296039       (18.74 % deleted)
d RESTARTS             286
d FAILURES             110408       
d NODES                745536       
d BACKTRACKS           745536       
d PROPAGATIONS         183484351    
d NOGOODSIZE           111.37 
d MEMORY               103.00 
d TIME                 35.7342 

s SATISFIABLE
